 | Materials Studio CASTEP version 2019            |
 | Ab Initio Total Energy Program                  |
 | Authors:                                        |
 | M. Segall, M. Probert, C. Pickard, P. Hasnip,   |
 | S. Clark, K. Refson, J. R. Yates, M. Payne      |
 | Contributors:                                   |
 | P. Lindan, P. Haynes, J. White, V. Milman,      |
 | N. Govind, M. Gibson, P. Tulip, V. Cocula,      |
 | B. Montanari, D. Quigley, M. Glover,            |
 | L. Bernasconi, A. Perlov, M. Plummer,           |
 | E. McNellis, J. Meyer, J. Gale, D. Jochym       |
 | J. Aarons, B. Walker, R. Gillen, D. Jones       |
 | T. Green, I. J. Bush, C. J. Armstrong,          |
 | E. J. Higgins, E. L. Brown, M. S. McFly,        |
 | J. Wilkins, B-C. Shih, P. J. P. Byrne           |
 | Copyright (c) 2000 - 2018                       |
 | Please cite                                     |
 |     "First principles methods using CASTEP"     |
 |         Zeitschrift fuer Kristallographie       |
 |           220(5-6) pp. 567-570 (2005)           |
 | S. J. Clark, M. D. Segall, C. J. Pickard,       |
 | P. J. Hasnip, M. J. Probert, K. Refson,         |
 | M. C. Payne                                     |
 |       in all publications arising from          |
 |              your use of CASTEP                 |

 This version was compiled for x86_64-rhel6-intel18.0 on Oct 16 2018
 Code version:    8027
 Intel(R) Math Kernel Library Version 2018.0.3
 Fundamental constants values: CODATA 2014

 Atomic calculation performed for H: 1s1

 Converged in 41 iterations to an ae energy of -12.488 eV

 Identity difference: 2.63E-05

   | Pseudopotential Report - Date of generation  9-12-2023   |
   | Element: H Ionic charge:  1.00 Level of theory: PBE      |
   | Atomic Solver: Koelling-Harmon                           |
   |               Reference Electronic Structure             |
   |         Orbital         Occupation         Energy        |
   |            1s              1.000           -0.239        |
   |                 Pseudopotential Definition               |
   |        Beta     l      e      Rc     scheme   norm       |
   |          1      0   -0.239   0.599     qc      0         |
   |          2      0    0.250   0.599     qc      0         |
   |         loc     1    0.000   0.599     pn      0         |
   | Augmentation charge Rinner = 0.421                       |
   | No partial core correction                               |
   | "1|0.6|9|10|15|10UU(qc=8)[]"                             |
   |      Author: Chris J. Pickard, Cambridge University      |

 Doing a self consistent calculation for the test configuration

 Atomic calculation performed for H: 1s1

[...]

 AE eigenvalue nl 10 =       -0.23860176
 PS eigenvalue nl 10 =       -0.23857601
 Maximum eigenvalue error:   2.57E-05

 Derived cutoff energies: C=   1 M=   6 F=  10 E=  20

 Checking for ghost states up to   1.51185 Ha

 No Ghost States Identified

 Atomic calculation performed for Li: 1s2 2s1

[...]

   | Pseudopotential Report - Date of generation  9-12-2023   |
   | Element: Li Ionic charge:  3.00 Level of theory: PBE     |
   | Atomic Solver: Koelling-Harmon                           |
   |               Reference Electronic Structure             |
   |         Orbital         Occupation         Energy        |
   |            1s              2.000           -1.906        |
   |            2s              1.000           -0.106        |
   |                 Pseudopotential Definition               |
   |        Beta     l      e      Rc     scheme   norm       |
   |          1      0   -1.906   1.001     qc      0         |
   |          2      0   -0.106   1.001     qc      0         |
   |          3      0    0.250   1.001     qc      0         |
   |         loc     1    0.000   1.001     pn      0         |
   | Augmentation charge Rinner = 0.699                       |
   | No partial core correction                               |
   | "1|1|12|15|20|10U:20UU(qc=7)[]"                          |
   |      Author: Chris J. Pickard, Cambridge University      |

[...]

 Atomic calculation performed for Li: 1s2 2s1

[...]

 Atomic calculation performed for O: 1s2 2s2 2p4

[...]

   | Pseudopotential Report - Date of generation  9-12-2023   |
   | Element: O Ionic charge:  6.00 Level of theory: PBE      |
   | Atomic Solver: Koelling-Harmon                           |
   |               Reference Electronic Structure             |
   |         Orbital         Occupation         Energy        |
   |            2s              2.000           -0.881        |
   |            2p              4.000           -0.332        |
   |                 Pseudopotential Definition               |
   |        Beta     l      e      Rc     scheme   norm       |
   |          1      0   -0.881   1.100     qc      0         |
   |          2      0    0.250   1.100     qc      0         |
   |          3      1   -0.332   1.100     qc      0         |
   |          4      1    0.250   1.100     qc      0         |
   |         loc     2    0.000   1.100     pn      0         |
   | Augmentation charge Rinner = 0.769                       |
   | Partial core correction Rc = 0.769                       |
   | "2|1.1|14|18|21|20UU:21UU(qc=7)[]"                       |
   |      Author: Chris J. Pickard, Cambridge University      |

[...]

 Atomic calculation performed for O: 1s2 2s2 2p4

[...]

 Atomic calculation performed for Al: 1s2 2s2 2p6 3s2 3p1

[...]

   | Pseudopotential Report - Date of generation  9-12-2023   |
   | Element: Al Ionic charge:  3.00 Level of theory: PBE     |
   | Atomic Solver: Koelling-Harmon                           |
   |               Reference Electronic Structure             |
   |         Orbital         Occupation         Energy        |
   |            3s              2.000           -0.285        |
   |            3p              1.000           -0.100        |
   |                 Pseudopotential Definition               |
   |        Beta     l      e      Rc     scheme   norm       |
   |          1      0   -0.285   2.192     qc      0         |
   |          2      0    0.250   2.192     qc      0         |
   |          3      1   -0.100   2.192     qc      0         |
   |          4      1    0.250   2.192     qc      0         |
   |          5      2    0.000   2.000     qc      0         |
   |          6      2    0.250   2.000     qc      0         |
   |         loc     3    0.000   2.192     pn      0         |
   | Augmentation charge Rinner = 1.398                       |
   | Partial core correction Rc = 1.398                       |
   | "3|2.2|2.2|1.4|3.5|5|7|30UU:31UU:32U2U2[]"               |
   |      Author: Chris J. Pickard, Cambridge University      |

[...]

 Atomic calculation performed for Al: 1s2 2s2 2p6 3s2 3p1

[...]

 Atomic calculation performed for P: 1s2 2s2 2p6 3s2 3p3

[...]

   | Pseudopotential Report - Date of generation  9-12-2023   |
   | Element: P Ionic charge:  5.00 Level of theory: PBE      |
   | Atomic Solver: Koelling-Harmon                           |
   |               Reference Electronic Structure             |
   |         Orbital         Occupation         Energy        |
   |            3s              2.000           -0.513        |
   |            3p              3.000           -0.202        |
   |                 Pseudopotential Definition               |
   |        Beta     l      e      Rc     scheme   norm       |
   |          1      0   -0.513   1.807     qc      0         |
   |          2      0    0.250   1.807     qc      0         |
   |          3      1   -0.202   1.807     qc      0         |
   |          4      1    0.250   1.807     qc      0         |
   |          5      2    0.000   1.807     qc      0         |
   |          6      2    0.250   1.807     qc      0         |
   |         loc     3    0.000   1.807     pn      0         |
   | Augmentation charge Rinner = 1.263                       |
   | Partial core correction Rc = 1.263                       |
   | "3|1.8|2|4|6|30UU:31UU:32UU[]"                           |
   |      Author: Chris J. Pickard, Cambridge University      |

[...]

 Atomic calculation performed for P: 1s2 2s2 2p6 3s2 3p3

[...]

 Atomic calculation performed for S: 1s2 2s2 2p6 3s2 3p4

[...]

 Identity difference: 6.43E-04

   | Pseudopotential Report - Date of generation  9-12-2023   |
   | Element: S Ionic charge:  6.00 Level of theory: PBE      |
   | Atomic Solver: Koelling-Harmon                           |
   |               Reference Electronic Structure             |
   |         Orbital         Occupation         Energy        |
   |            3s              2.000           -0.634        |
   |            3p              4.000           -0.258        |
   |                 Pseudopotential Definition               |
   |        Beta     l      e      Rc     scheme   norm       |
   |          1      0   -0.634   1.796     qc      0         |
   |          2      0    0.250   1.796     qc      0         |
   |          3      1   -0.258   1.796     qc      0         |
   |          4      1    0.250   1.796     qc      0         |
   |          5      2    0.000   1.796     qc      0         |
   |          6      2    0.250   1.796     qc      0         |
   |         loc     3    0.000   1.796     pn      0         |
   | Augmentation charge Rinner = 1.255                       |
   | Partial core correction Rc = 1.255                       |
   | "3|1.8|5|6.5|8|30UU:31UU:32UU[]"                         |
   |      Author: Chris J. Pickard, Cambridge University      |

 Doing a self consistent calculation for the test configuration

 Atomic calculation performed for S: 1s2 2s2 2p6 3s2 3p4

 Converged in 57 iterations to an ae energy of -10858.586 eV

 AE eigenvalue nl 10 =      -88.41643994
 AE eigenvalue nl 20 =       -7.78013754
 AE eigenvalue nl 21 =       -5.75147931
 AE eigenvalue nl 30 =       -0.63416288
 AE eigenvalue nl 31 =       -0.25756675
 PS eigenvalue nl 30 =       -0.63414952
 PS eigenvalue nl 31 =       -0.25755711
 Maximum eigenvalue error:   1.34E-05

 Derived cutoff energies: C=   3 M=   6 F=   6 E=   6

 Checking for ghost states up to   1.42480 Ha

 No Ghost States Identified

 Pseudo atomic calculation performed for H 1s1

 Converged in 13 iterations to a total energy of -12.4592 eV

 Pseudo atomic calculation performed for Li 1s2 2s1

[...]

 Pseudo atomic calculation performed for O 2s2 2p4

[...]

 Converged in 18 iterations to a total energy of -214.2201 eV

 Pseudo atomic calculation performed for S 3s2 3p4

 Converged in 20 iterations to a total energy of -299.4459 eV
 Calculation not parallelised.

 ************************************ Title ************************************
 CASTEP calculation from Materials Studio

 ***************************** General Parameters ******************************

 output verbosity                               : normal  (1)
 write checkpoint data to                       : 2AlP-Li_5C.check
 type of calculation                            : geometry optimization
[...]
 * S               2      0.00302             -0.00292             -0.01345         *
 * S               3      0.01246              0.01104              0.00934         *
 * S               4      0.00495             -0.01173             -0.02749         *

 +------------+-------------+-------------+-----------------+ <-- min BFGS
 |    Step    |   lambda    |   F.delta'  |    enthalpy     | <-- min BFGS
 +------------+-------------+-------------+-----------------+ <-- min BFGS
 |  previous  |    0.000000 |    0.189248 |   -12523.928242 | <-- min BFGS
 | trial step |    1.000000 |    0.105827 |   -12523.928778 | <-- min BFGS
 +------------+-------------+-------------+-----------------+ <-- min BFGS

 BFGS: improving iteration         1 with line minimization (lambda=  2.268594)

[...]

 +------------+-------------+-------------+-----------------+ <-- min BFGS
 |    Step    |   lambda    |   F.delta'  |    enthalpy     | <-- min BFGS
 +------------+-------------+-------------+-----------------+ <-- min BFGS
 |  previous  |    0.000000 |    0.189248 |   -12523.928242 | <-- min BFGS
 | trial step |    1.000000 |    0.105827 |   -12523.928778 | <-- min BFGS
 |  line step |    2.268594 |   -0.004866 |   -12523.928983 | <-- min BFGS
 +------------+-------------+-------------+-----------------+ <-- min BFGS

 BFGS: finished iteration     1 with enthalpy= -1.25239290E+004 eV

 +-----------+-----------------+-----------------+------------+-----+ <-- BFGS
 | Parameter |      value      |    tolerance    |    units   | OK? | <-- BFGS
 +-----------+-----------------+-----------------+------------+-----+ <-- BFGS
 |  dE/ion   |   1.346876E-005 |   1.000000E-005 |         eV | No  | <-- BFGS
 |  |F|max   |   5.003557E-002 |   3.000000E-002 |       eV/A | No  | <-- BFGS
 |  |dR|max  |   1.426275E-003 |   1.000000E-003 |          A | No  | <-- BFGS
 +-----------+-----------------+-----------------+------------+-----+ <-- BFGS

[...]

 +-----------+-----------------+-----------------+------------+-----+ <-- BFGS
 | Parameter |      value      |    tolerance    |    units   | OK? | <-- BFGS
 +-----------+-----------------+-----------------+------------+-----+ <-- BFGS
 |  dE/ion   |   7.352461E-006 |   1.000000E-005 |         eV | Yes | <-- BFGS
 |  |F|max   |   6.203881E-002 |   3.000000E-002 |       eV/A | No  | <-- BFGS
 |  |dR|max  |   2.297951E-003 |   1.000000E-003 |          A | No  | <-- BFGS
 +-----------+-----------------+-----------------+------------+-----+ <-- BFGS

[...]

 BFGS: improving iteration         3 with line minimization (lambda=  2.731236)

[...]

 +------------+-------------+-------------+-----------------+ <-- min BFGS
 |    Step    |   lambda    |   F.delta'  |    enthalpy     | <-- min BFGS
 +------------+-------------+-------------+-----------------+ <-- min BFGS
 |  previous  |    0.000000 |    0.117676 |   -12523.929387 | <-- min BFGS
 | trial step |    1.000000 |    0.074591 |   -12523.929538 | <-- min BFGS
 |  line step |    2.731236 |   -0.007097 |   -12523.929643 | <-- min BFGS
 +------------+-------------+-------------+-----------------+ <-- min BFGS

[...]

 +-----------+-----------------+-----------------+------------+-----+ <-- BFGS
 | Parameter |      value      |    tolerance    |    units   | OK? | <-- BFGS
 +-----------+-----------------+-----------------+------------+-----+ <-- BFGS
 |  dE/ion   |   4.657345E-006 |   1.000000E-005 |         eV | Yes | <-- BFGS
 |  |F|max   |   3.447241E-002 |   3.000000E-002 |       eV/A | No  | <-- BFGS
 |  |dR|max  |   1.061602E-003 |   1.000000E-003 |          A | No  | <-- BFGS
 +-----------+-----------------+-----------------+------------+-----+ <-- BFGS

 Starting BFGS iteration          4 ...

 +------------+-------------+-------------+-----------------+ <-- min BFGS
 |    Step    |   lambda    |   F.delta'  |    enthalpy     | <-- min BFGS
 +------------+-------------+-------------+-----------------+ <-- min BFGS
 |  previous  |    0.000000 |    0.051201 |   -12523.929643 | <-- min BFGS
 +------------+-------------+-------------+-----------------+ <-- min BFGS

 BFGS: starting iteration         4 with trial guess (lambda=  1.000000)

[...]

------------------------------------------------------------------------ <-- SCF
SCF loop      Energy           Fermi           Energy gain       Timer   <-- SCF
                               energy          per atom          (sec)   <-- SCF
------------------------------------------------------------------------ <-- SCF
Initial  -1.25213583E+004  0.00000000E+000                       956.61  <-- SCF
      1  -1.25213263E+004 -1.34156570E+000  -5.82329354E-004     962.08  <-- SCF
      2  -1.25213263E+004 -1.34156577E+000   2.15805192E-007     971.74  <-- SCF
      3  -1.25213262E+004 -1.34161743E+000  -2.30670603E-006     981.25  <-- SCF
      4  -1.25213263E+004 -1.34170575E+000   2.11855431E-006     990.39  <-- SCF
      5  -1.25213263E+004 -1.34176836E+000   2.17902355E-007     999.75  <-- SCF
      6  -1.25213263E+004 -1.34184566E+000   9.31026450E-008    1008.59  <-- SCF
------------------------------------------------------------------------ <-- SCF

Final energy, E             =  -12521.32630017     eV
Final free energy (E-TS)    =  -12521.32630017     eV
(energies not corrected for finite basis set)

NB est. 0K energy (E-0.5TS)      =  -12521.32630017     eV

(SEDC) Total Energy Correction : -0.260355E+01 eV

Dispersion corrected final energy*, Ecor          =  -12523.92985110     eV
Dispersion corrected final free energy* (Ecor-TS) =  -12523.92985110     eV
NB dispersion corrected est. 0K energy* (Ecor-0.5TS) =  -12523.92985110     eV

 * not corrected for finite basis set

[...]

 +------------+-------------+-------------+-----------------+ <-- min BFGS
 |    Step    |   lambda    |   F.delta'  |    enthalpy     | <-- min BFGS
 +------------+-------------+-------------+-----------------+ <-- min BFGS
 |  previous  |    0.000000 |    0.051201 |   -12523.929643 | <-- min BFGS
 | trial step |    1.000000 |    0.041767 |   -12523.929851 | <-- min BFGS
 +------------+-------------+-------------+-----------------+ <-- min BFGS

 BFGS: finished iteration     4 with enthalpy= -1.25239299E+004 eV

 +-----------+-----------------+-----------------+------------+-----+ <-- BFGS
 | Parameter |      value      |    tolerance    |    units   | OK? | <-- BFGS
 +-----------+-----------------+-----------------+------------+-----+ <-- BFGS
 |  dE/ion   |   3.779263E-006 |   1.000000E-005 |         eV | Yes | <-- BFGS
 |  |F|max   |   2.971609E-002 |   3.000000E-002 |       eV/A | Yes | <-- BFGS
 |  |dR|max  |   8.739016E-004 |   1.000000E-003 |          A | Yes | <-- BFGS
 +-----------+-----------------+-----------------+------------+-----+ <-- BFGS

 BFGS: Geometry optimization completed successfully.

 BFGS: Final Configuration:

                                     Cell Contents

            x  Element         Atom        Fractional coordinates of atoms  x
            x                 Number           u          v          w      x
            x  H                 1         0.485593   0.174927   0.240724   x
            x  H                 2         0.561545   0.372460   0.085831   x
            x  H                 3         0.465702   0.394588   0.266526   x
            x  H                 4         0.427679   0.311754   0.406135   x
            x  H                 5         0.711991   0.398937   0.206327   x
            x  H                 6         0.665190   0.525385   0.331161   x
            x  H                 7         0.628902   0.276570   0.280833   x
            x  H                 8         0.647773   0.342129   0.397172   x
            x  H                 9         0.842292   0.411838   0.356755   x
            x  H                10         0.495340   0.591094   0.463383   x
            x  H                11         0.596087   0.412146   0.449289   x
            x  H                12         0.179416   0.578147   0.358405   x
            x  H                13         0.325800   0.358804   0.441962   x
            x  H                14         0.363358   0.518128   0.273810   x
            x  H                15         0.338128   0.686971   0.406188   x
            x  H                16         0.471516   0.445881   0.533112   x
            x  H                17         0.537584   0.533791   0.678245   x
            x  H                18         0.318924   0.533378   0.544236   x
            x  H                19         0.417487   0.626100   0.464360   x
            x  H                20         0.340571   0.566528   0.686075   x
            x  Li                1         0.672288   0.528173   0.490489   x
            x  Li                2         0.694213   0.392164   0.550040   x
            x  O                 1         0.516705   0.211645   0.231448   x
            x  O                 2         0.601316   0.384370   0.119700   x
            x  O                 3         0.458684   0.274828   0.391033   x
            x  O                 4         0.497099   0.362363   0.240256   x
            x  O                 5         0.596795   0.309076   0.304151   x
            x  O                 6         0.682170   0.406266   0.256888   x
            x  O                 7         0.668909   0.378381   0.432218   x
            x  O                 8         0.699820   0.513821   0.374641   x
            x  O                 9         0.802784   0.397888   0.323583   x
            x  O                10         0.550679   0.553979   0.415627   x
            x  O                11         0.455714   0.477879   0.359009   x
            x  O                12         0.547035   0.427390   0.449869   x
            x  O                13         0.571211   0.468781   0.292251   x
            x  O                14         0.218423   0.605984   0.368780   x
            x  O                15         0.365225   0.379205   0.415697   x
            x  O                16         0.354123   0.641049   0.404702   x
            x  O                17         0.334452   0.510012   0.325032   x
            x  O                18         0.312745   0.515897   0.480781   x
            x  O                19         0.430475   0.473418   0.535559   x
            x  O                20         0.456291   0.609347   0.503744   x
            x  O                21         0.492678   0.553862   0.684277   x
            x  O                22         0.354707   0.572294   0.624481   x
            x  Al                1         0.507180   0.282424   0.297452   x
            x  Al                2         0.591584   0.391537   0.234334   x
            x  Al                3         0.726537   0.429136   0.363306   x
            x  Al                4         0.296558   0.574766   0.391836   x
            x  Al                5         0.381129   0.464601   0.426620   x
            x  Al                6         0.438341   0.552144   0.597060   x
            x  P                 1         0.532081   0.485692   0.378399   x
            x  S                 1         0.798148   0.448325   0.514669   x
            x  S                 2         0.625881   0.472011   0.626357   x
            x  S                 3         0.713201   0.501827   0.691753   x
            x  S                 4         0.775106   0.533639   0.589745   x

 BFGS: Final Enthalpy     = -1.25239299E+004 eV
 BFGS: Final <frequency>  =    1782.61679 cm-1

 ************************************** Forces **************************************
 *                           Cartesian components (eV/A)                            *
 *                         x                    y                    z              *
 * H               1     -0.01391              0.01291             -0.01291         *
 * H               2      0.02195              0.00218              0.00890         *
 * H               3     -0.00247              0.00373             -0.01943         *
 * H               4     -0.00414              0.01291              0.00646         *
 * H               5      0.01796             -0.00863             -0.00421         *
 * H               6      0.00652             -0.00356             -0.00287         *
 * H               7      0.00302              0.00461              0.00441         *
 * H               8     -0.00352             -0.00111              0.00438         *
 * H               9      0.00894             -0.00416             -0.00044         *
 * H              10      0.00058             -0.00241              0.00662         *
 * H              11     -0.00437             -0.01098              0.00466         *
 * H              12     -0.01663             -0.01513              0.00285         *
 * H              13     -0.02736              0.00967              0.00641         *
 * H              14     -0.01256             -0.00095              0.00477         *
 * H              15     -0.00245              0.01823              0.00099         *
 * H              16      0.00155              0.00016             -0.00251         *
 * H              17      0.00226             -0.00099              0.00056         *
 * H              18     -0.00125              0.00213             -0.00207         *
 * H              19      0.00140             -0.00559             -0.00643         *
 * H              20      0.00203              0.00121             -0.00400         *
 * Li              1     -0.00467             -0.00090             -0.00478         *
 * Li              2     -0.00087             -0.00349              0.00228         *
 * O               1     -0.02316              0.00343             -0.01235         *
 * O               2     -0.00818             -0.00354             -0.01727         *
 * O               3      0.01389              0.01491              0.01083         *
 * O               4      0.00242              0.00630             -0.01538         *
 * O               5     -0.00435              0.00292             -0.00428         *
 * O               6     -0.00825              0.00046              0.01050         *
 * O               7      0.00161             -0.00148              0.00424         *
 * O               8      0.00829             -0.00525              0.00362         *
 * O               9     -0.01102             -0.00992             -0.00633         *
 * O              10      0.01764             -0.00893              0.02024         *
 * O              11      0.00547              0.01130              0.00548         *
 * O              12     -0.01263             -0.01249              0.00103         *
 * O              13     -0.00501              0.00131              0.01559         *
 * O              14      0.00888              0.00226              0.00251         *
 * O              15      0.00678              0.01474              0.00099         *
 * O              16      0.00701             -0.01797             -0.00293         *
 * O              17      0.00900             -0.00460             -0.00639         *
 * O              18      0.00821              0.00372              0.00012         *
 * O              19      0.00083             -0.00113              0.00241         *
 * O              20      0.00921             -0.00944             -0.00157         *
 * O              21      0.00134             -0.00043             -0.00056         *
 * O              22     -0.00160             -0.00046              0.00925         *
 * Al              1     -0.00306              0.01100              0.00260         *
 * Al              2     -0.00191             -0.00788              0.00765         *
 * Al              3      0.00639             -0.00290              0.00992         *
 * Al              4     -0.00994              0.00263              0.00337         *
 * Al              5     -0.00735              0.00277              0.00406         *
 * Al              6      0.00169              0.00209             -0.00122         *
 * P               1      0.00071             -0.00713             -0.01534         *
 * S               1      0.00236             -0.00825             -0.00360         *
 * S               2      0.00746              0.00306              0.00047         *
 * S               3      0.00422              0.00861             -0.00995         *
 * S               4      0.00103              0.00047             -0.01134         *

Writing analysis data to 2AlP-Li_5C.castep_bin

Writing model to 2AlP-Li_5C.check

 A BibTeX formatted list of references used in this run has been written to
 2AlP-Li_5C.bib

Initialisation time =     22.01 s
Calculation time    =   1004.51 s
Finalisation time   =      1.36 s
Total time          =   1027.89 s